[VALIDATOR STDOUT]
Checking plan: /home/jfan5/Safety-gen/runs/benchmark/optic/blocksworld_20260205_140901/blocksworld/optic_results/bw_ops3_n16_seed16001.plan
Plan to validate:

Plan size: 34
1:
(unstack b2 b4)
 
2:
(putdown b2)
 
3:
(unstack b6 b9)
 
4:
(stack b6 b2)
 
5:
(unstack b4 b1)
 
6:
(putdown b4)
 
7:
(unstack b1 b8)
 
8:
(putdown b1)
 
9:
(unstack b9 b12)
 
10:
(putdown b9)
 
11:
(unstack b12 b5)
 
12:
(stack b12 b1)
 
13:
(unstack b5 b14)
 
14:
(stack b5 b8)
 
15:
(unstack b14 b15)
 
16:
(putdown b14)
 
17:
(unstack b15 b16)
 
18:
(putdown b15)
 
19:
(pickup b9)
 
20:
(stack b9 b14)
 
21:
(pickup b4)
 
22:
(stack b4 b5)
 
23:
(unstack b16 b13)
 
24:
(stack b16 b4)
 
25:
(unstack b13 b7)
 
26:
(stack b13 b6)
 
27:
(unstack b10 b11)
 
28:
(stack b10 b16)
 
29:
(unstack b11 b3)
 
30:
(stack b11 b12)
 
31:
(pickup b7)
 
32:
(stack b7 b11)
 
33:
(pickup b3)
 
34:
(stack b3 b15)
 

Plan Validation details
-----------------------

Checking next happening (time 1)
Deleting (on b2 b4)
Deleting (clear b2)
Deleting (arm-empty)
Adding (holding b2)
Adding (clear b4)

Checking next happening (time 2)
Deleting (holding b2)
Adding (clear b2)
Adding (arm-empty)
Adding (on-table b2)

Checking next happening (time 3)
Deleting (on b6 b9)
Deleting (clear b6)
Deleting (arm-empty)
Adding (holding b6)
Adding (clear b9)

Checking next happening (time 4)
Deleting (clear b2)
Deleting (holding b6)
Adding (arm-empty)
Adding (clear b6)
Adding (on b6 b2)

Checking next happening (time 5)
Deleting (on b4 b1)
Deleting (clear b4)
Deleting (arm-empty)
Adding (holding b4)
Adding (clear b1)

Checking next happening (time 6)
Deleting (holding b4)
Adding (clear b4)
Adding (arm-empty)
Adding (on-table b4)

Checking next happening (time 7)
Deleting (on b1 b8)
Deleting (clear b1)
Deleting (arm-empty)
Adding (holding b1)
Adding (clear b8)

Checking next happening (time 8)
Deleting (holding b1)
Adding (clear b1)
Adding (arm-empty)
Adding (on-table b1)

Checking next happening (time 9)
Deleting (on b9 b12)
Deleting (clear b9)
Deleting (arm-empty)
Adding (holding b9)
Adding (clear b12)

Checking next happening (time 10)
Deleting (holding b9)
Adding (clear b9)
Adding (arm-empty)
Adding (on-table b9)

Checking next happening (time 11)
Deleting (on b12 b5)
Deleting (clear b12)
Deleting (arm-empty)
Adding (holding b12)
Adding (clear b5)

Checking next happening (time 12)
Deleting (clear b1)
Deleting (holding b12)
Adding (arm-empty)
Adding (clear b12)
Adding (on b12 b1)

Checking next happening (time 13)
Deleting (on b5 b14)
Deleting (clear b5)
Deleting (arm-empty)
Adding (holding b5)
Adding (clear b14)

Checking next happening (time 14)
Deleting (clear b8)
Deleting (holding b5)
Adding (arm-empty)
Adding (clear b5)
Adding (on b5 b8)

Checking next happening (time 15)
Deleting (on b14 b15)
Deleting (clear b14)
Deleting (arm-empty)
Adding (holding b14)
Adding (clear b15)

Checking next happening (time 16)
Deleting (holding b14)
Adding (clear b14)
Adding (arm-empty)
Adding (on-table b14)

Checking next happening (time 17)
Deleting (on b15 b16)
Deleting (clear b15)
Deleting (arm-empty)
Adding (holding b15)
Adding (clear b16)

Checking next happening (time 18)
Deleting (holding b15)
Adding (clear b15)
Adding (arm-empty)
Adding (on-table b15)

Checking next happening (time 19)
Deleting (clear b9)
Deleting (on-table b9)
Deleting (arm-empty)
Adding (holding b9)

Checking next happening (time 20)
Deleting (clear b14)
Deleting (holding b9)
Adding (arm-empty)
Adding (clear b9)
Adding (on b9 b14)

Checking next happening (time 21)
Deleting (clear b4)
Deleting (on-table b4)
Deleting (arm-empty)
Adding (holding b4)

Checking next happening (time 22)
Deleting (clear b5)
Deleting (holding b4)
Adding (arm-empty)
Adding (clear b4)
Adding (on b4 b5)

Checking next happening (time 23)
Deleting (on b16 b13)
Deleting (clear b16)
Deleting (arm-empty)
Adding (holding b16)
Adding (clear b13)

Checking next happening (time 24)
Deleting (clear b4)
Deleting (holding b16)
Adding (arm-empty)
Adding (clear b16)
Adding (on b16 b4)

Checking next happening (time 25)
Deleting (on b13 b7)
Deleting (clear b13)
Deleting (arm-empty)
Adding (holding b13)
Adding (clear b7)

Checking next happening (time 26)
Deleting (clear b6)
Deleting (holding b13)
Adding (arm-empty)
Adding (clear b13)
Adding (on b13 b6)

Checking next happening (time 27)
Deleting (on b10 b11)
Deleting (clear b10)
Deleting (arm-empty)
Adding (holding b10)
Adding (clear b11)

Checking next happening (time 28)
Deleting (clear b16)
Deleting (holding b10)
Adding (arm-empty)
Adding (clear b10)
Adding (on b10 b16)

Checking next happening (time 29)
Deleting (on b11 b3)
Deleting (clear b11)
Deleting (arm-empty)
Adding (holding b11)
Adding (clear b3)

Checking next happening (time 30)
Deleting (clear b12)
Deleting (holding b11)
Adding (arm-empty)
Adding (clear b11)
Adding (on b11 b12)

Checking next happening (time 31)
Deleting (clear b7)
Deleting (on-table b7)
Deleting (arm-empty)
Adding (holding b7)

Checking next happening (time 32)
Deleting (clear b11)
Deleting (holding b7)
Adding (arm-empty)
Adding (clear b7)
Adding (on b7 b11)

Checking next happening (time 33)
Deleting (clear b3)
Deleting (on-table b3)
Deleting (arm-empty)
Adding (holding b3)

Checking next happening (time 34)
Deleting (clear b15)
Deleting (holding b3)
Adding (arm-empty)
Adding (clear b3)
Adding (on b3 b15)
Plan executed successfully - checking goal
Plan valid
Final value: 34 

Successful plans:
Value: 34
 /home/jfan5/Safety-gen/runs/benchmark/optic/blocksworld_20260205_140901/blocksworld/optic_results/bw_ops3_n16_seed16001.plan 34
